136 4 0 
10 10 10 10 

0 0 0 0 0 
1 2 1 2 
2 1 2

0 0 0 0 0 
2 1 3 1 4 
2 3 4

0 0 0 0 0 
1 2 11 12 
2 11 12

9 0 0 1 1 
1 1 5 
1 5

8 9 9 9 0 
1 1 43 
1 43

3 1 1 5 9 
1 3 21 22 6 
3 21 22 6

0 0 0 0 0 
2 1 7 1 8 
2 7 8

9 0 0 1 1 
1 1 9 
1 9

8 9 9 9 0 
1 1 10 
1 10

3 1 1 5 9 
1 1 10 
1 10

0 0 0 0 0 
1 1 32 
1 32

0 0 0 0 0 
2 1 13 1 14 
2 13 14

0 0 0 0 0 
2 1 17 1 18 
2 17 18

6 1 0 1 1 
1 1 15 
1 15

1 9 5 9 8 
1 1 15 
1 15

1 5 0 0 6 
1 1 16 
1 16

0 0 0 0 0 
1 1 23 
1 23

9 0 0 1 1 
1 1 19 
1 19

8 9 9 9 0 
1 1 20 
1 20

3 1 1 5 9 
1 1 20 
1 20

0 0 0 0 0 
1 1 23 
1 23

0 0 0 0 0 
2 1 24 1 25 
2 24 25

0 0 0 0 0 
1 1 28 
1 28

0 0 0 0 0 
1 1 33 
1 33

9 0 0 1 1 
1 1 26 
1 26

8 9 9 9 0 
1 1 27 
1 27

3 1 1 5 9 
1 1 27 
1 27

0 0 0 0 0 
1 1 32 
1 32

2 1 0 5 1 
2 1 29 1 30 
2 29 30

2 7 1 0 8 
1 1 31 
1 31

7 7 9 0 6 
1 1 31 
1 31

0 0 0 0 0 
1 1 32 
1 32

0 0 0 0 0 
1 1 43 
1 43

2 1 0 5 1 
2 1 34 1 35 
2 34 35

2 7 1 0 8 
1 3 36 37 38 
3 36 37 38

7 7 9 0 6 
1 1 69 
1 69

0 0 0 0 0 
1 1 39 
1 39

0 0 0 0 0 
2 1 44 1 45 
2 44 45

0 0 0 0 0 
2 1 47 1 48 
2 47 48

2 1 0 5 1 
2 1 40 1 41 
2 40 41

2 7 1 0 8 
1 1 42 
1 42

7 7 9 0 6 
1 1 42 
1 42

0 0 0 0 0 
1 1 68 
1 68

0 0 0 0 0 
1 3 51 52 53 
3 51 52 53

9 0 0 1 1 
1 1 46 
1 46

8 9 9 9 0 
1 1 66 
1 66

3 1 1 5 9 
1 1 66 
1 66

6 1 0 1 1 
1 1 49 
1 49

1 9 5 9 8 
1 1 49 
1 49

1 5 0 0 6 
1 1 50 
1 50

0 0 0 0 0 
1 1 68 
1 68

0 0 0 0 0 
2 1 54 1 55 
2 54 55

0 0 0 0 0 
1 1 58 
1 58

0 0 0 0 0 
2 1 62 1 63 
2 62 63

9 0 0 1 1 
1 1 56 
1 56

8 9 9 9 0 
1 1 57 
1 57

3 1 1 5 9 
1 1 57 
1 57

0 0 0 0 0 
1 1 67 
1 67

2 1 0 5 1 
2 1 59 1 60 
2 59 60

2 7 1 0 8 
1 1 61 
1 61

7 7 9 0 6 
1 1 61 
1 61

0 0 0 0 0 
1 1 67 
1 67

6 1 0 1 1 
1 1 64 
1 64

1 9 5 9 8 
1 1 64 
1 64

1 5 0 0 6 
1 1 65 
1 65

0 0 0 0 0 
1 1 67 
1 67

0 0 0 0 0 
1 1 68 
1 68

0 0 0 0 0 
1 1 70 
1 70

0 0 0 0 0 
1 1 69 
1 69

0 0 0 0 0 
1 1 70 
1 70

0 0 0 0 0 
1 2 72 71 
2 72 71

0 0 0 0 0 
1 2 73 93 
2 73 93

0 0 0 0 0 
1 3 80 78 79 
3 78 79 80

0 0 0 0 0 
1 1 74 
1 74

2 1 0 5 1 
2 1 75 1 76 
2 75 76

2 7 1 0 8 
1 1 77 
1 77

7 7 9 0 6 
1 1 77 
1 77

0 0 0 0 0 
1 1 99 
1 99

0 0 0 0 0 
2 1 81 1 82 
2 81 82

0 0 0 0 0 
2 1 85 1 86 
2 85 86

0 0 0 0 0 
2 1 89 1 90 
2 89 90

6 1 0 1 1 
1 1 83 
1 83

1 9 5 9 8 
1 1 83 
1 83

1 5 0 0 6 
1 1 84 
1 84

0 0 0 0 0 
1 1 94 
1 94

6 1 0 1 1 
1 1 87 
1 87

1 9 5 9 8 
1 1 87 
1 87

1 5 0 0 6 
1 1 88 
1 88

0 0 0 0 0 
1 1 94 
1 94

9 0 0 1 1 
1 1 91 
1 91

8 9 9 9 0 
1 1 92 
1 92

3 1 1 5 9 
1 1 92 
1 92

0 0 0 0 0 
1 1 94 
1 94

0 0 0 0 0 
2 1 95 1 96 
2 95 96

0 0 0 0 0 
2 1 100 1 101 
2 100 101

6 1 0 1 1 
1 1 97 
1 97

1 9 5 9 8 
1 1 97 
1 97

1 5 0 0 6 
1 1 98 
1 98

0 0 0 0 0 
1 1 99 
1 99

0 0 0 0 0 
1 1 104 
1 104

6 1 0 1 1 
1 1 102 
1 102

1 9 5 9 8 
1 1 102 
1 102

1 5 0 0 6 
1 1 103 
1 103

0 0 0 0 0 
1 2 105 108 
2 108 105

2 1 0 5 1 
1 3 106 107 114 
3 106 107 114

0 0 0 0 0 
1 1 113 
1 113

0 0 0 0 0 
1 1 116 
1 116

0 0 0 0 0 
1 1 120 
1 120

0 0 0 0 0 
1 1 109 
1 109

2 1 0 5 1 
2 1 110 1 111 
2 110 111

2 7 1 0 8 
1 1 112 
1 112

7 7 9 0 6 
1 1 112 
1 112

0 0 0 0 0 
1 1 132 
1 132

2 1 0 5 1 
2 1 128 1 115 
2 128 115

0 0 0 0 0 
1 1 124 
1 124

7 7 9 0 6 
1 1 130 
1 130

2 1 0 5 1 
2 1 117 1 118 
2 117 118

2 7 1 0 8 
1 1 119 
1 119

7 7 9 0 6 
1 1 119 
1 119

0 0 0 0 0 
1 1 129 
1 129

2 1 0 5 1 
2 1 121 1 122 
2 121 122

2 7 1 0 8 
1 1 123 
1 123

7 7 9 0 6 
1 1 123 
1 123

0 0 0 0 0 
1 1 129 
1 129

2 1 0 5 1 
2 1 125 1 126 
2 125 126

2 7 1 0 8 
1 1 127 
1 127

7 7 9 0 6 
1 1 127 
1 127

0 0 0 0 0 
1 1 129 
1 129

2 7 1 0 8 
1 1 130 
1 130

0 0 0 0 0 
2 1 131 1 133 
2 131 133

0 0 0 0 0 
1 1 132 
1 132

2 7 1 0 8 
1 1 134 
1 134

0 0 0 0 0 
1 1 135 
1 135

7 7 9 0 6 
1 1 134 
1 134

0 0 0 0 0 
1 1 135 
1 135

0 0 0 0 0 
0 
0 
